
Gurobi 12.0.2 (win64) logging started Tue Oct  7 14:57:13 2025

Set parameter LogFile to value "C:\Ioana\_uni\honours\slp\algorithm\Main_files\results\paracetamol degradation (sulfation or napqi formation)\Task_001_Sample004_irr_gurobi.log"
Gurobi Optimizer version 12.0.2 build v12.0.2rc0 (win64 - Windows 11.0 (26100.2))

CPU model: Intel(R) Core(TM) Ultra 5 125H, instruction set [SSE2|AVX|AVX2]
Thread count: 14 physical cores, 18 logical processors, using up to 18 threads

Non-default parameters:
TimeLimit  2200

Optimize a model with 47236 rows, 34513 columns and 146723 nonzeros
Model fingerprint: 0xda6047ad
Variable types: 17264 continuous, 17249 integer (17249 binary)
Coefficient statistics:
  Matrix range     [1e-04, 8e+04]
  Objective range  [1e-04, 9e-01]
  Bounds range     [1e+00, 1e+03]
  RHS range        [1e+00, 1e+00]
Presolve removed 30825 rows and 21545 columns
Presolve time: 0.30s
Presolved: 16411 rows, 12968 columns, 54694 nonzeros
Variable types: 6421 continuous, 6547 integer (6547 binary)
Found heuristic solution: objective 10.0616799

Root relaxation: objective 2.719600e-02, 3678 iterations, 0.30 seconds (0.71 work units)

    Nodes    |    Current Node    |     Objective Bounds      |     Work
 Expl Unexpl |  Obj  Depth IntInf | Incumbent    BestBd   Gap | It/Node Time

     0     0    0.02720    0    2   10.06168    0.02720   100%     -    0s
H    0     0                       0.9067255    0.02720  97.0%     -    0s
H    0     0                       0.0584844    0.02720  53.5%     -    0s
     0     0    0.02720    0    2    0.05848    0.02720  53.5%     -    0s

Explored 1 nodes (3678 simplex iterations) in 0.72 seconds (1.19 work units)
Thread count was 18 (of 18 available processors)

Solution count 3: 0.0584844 0.906726 10.0617 

Optimal solution found (tolerance 1.00e-04)
Best objective 5.848435311749e-02, best bound 5.848435311749e-02, gap 0.0000%
